
Gurobi 11.0.3 (linux64) logging started Mon Aug 25 13:19:43 2025

Set parameter LogFile to value "/home/yihong/Coding/OR_SUC/SUC_epstheta_results_bigM100000_thread4/case24_ieee_rts_theta0.1_epsilon0.1_gurobi_seed140000_num_gen100_N_WDR50_load_scaling_factor1_proposed_eps_T2quadra_cost_bc1.03.txt"
Set parameter TimeLimit to value 3600
Gurobi Optimizer version 11.0.3 build v11.0.3rc0 (linux64 - "Ubuntu 20.04.6 LTS")

CPU model: AMD EPYC 7532 32-Core Processor, instruction set [SSE2|AVX|AVX2]
Thread count: 64 physical cores, 128 logical processors, using up to 4 threads

Academic license 2399124 - for non-commercial use only - registered to yi___@ed.ac.uk
Optimize a model with 4290 rows, 2531 columns and 107910 nonzeros
Model fingerprint: 0xb899f9a5
Model has 200 quadratic constraints
Variable types: 2331 continuous, 200 integer (200 binary)
Coefficient statistics:
  Matrix range     [3e-04, 2e+03]
  QMatrix range    [2e-03, 8e-03]
  QLMatrix range   [8e-02, 6e+01]
  Objective range  [1e+00, 1e+00]
  Bounds range     [1e+00, 1e+00]
  RHS range        [1e+00, 8e+03]
Presolve removed 3718 rows and 1287 columns
Presolve time: 0.02s
Presolved: 572 rows, 1244 columns, 4528 nonzeros
Presolved model has 200 quadratic constraint(s)
Variable types: 1044 continuous, 200 integer (200 binary)

Root relaxation: objective 2.477007e+03, 383 iterations, 0.00 seconds (0.00 work units)

    Nodes    |    Current Node    |     Objective Bounds      |     Work
 Expl Unexpl |  Obj  Depth IntInf | Incumbent    BestBd   Gap | It/Node Time

     0     0 2477.00659    0    6          - 2477.00659      -     -    0s
     0     0 2950.61761    0   82          - 2950.61761      -     -    0s
     0     0 10889.0521    0   80          - 10889.0521      -     -    0s
     0     0 11854.7042    0   82          - 11854.7042      -     -    0s
     0     0 29594.5188    0   53          - 29594.5188      -     -    0s
     0     0 29607.7769    0   52          - 29607.7769      -     -    0s
     0     0 29629.6711    0   14          - 29629.6711      -     -    0s
     0     0 29630.4105    0   14          - 29630.4105      -     -    0s
     0     0 29630.4105    0   14          - 29630.4105      -     -    0s
     0     0 29630.4105    0   14          - 29630.4105      -     -    0s
     0     2 29630.4105    0   14          - 29630.4105      -     -    0s
H   37    38                    29636.355340 29631.4090  0.02%   8.5    0s
*   37    38               9    29636.355340 29631.4090  0.02%   8.6    0s

Cutting planes:
  Gomory: 8
  Implied bound: 98
  MIR: 31
  Flow cover: 150
  RLT: 2

Explored 39 nodes (1988 simplex iterations) in 0.32 seconds (0.22 work units)
Thread count was 4 (of 128 available processors)

Solution count 2: 29636.4 29636.4 

Optimal solution found (tolerance 1.00e-03)
Warning: max constraint violation (4.6736e-07) exceeds tolerance
Best objective 2.963635534007e+04, best bound 2.963140904348e+04, gap 0.0167%

Gurobi 11.0.3 (linux64) logging started Mon Aug 25 13:19:43 2025

Set parameter LogFile to value "/home/yihong/Coding/OR_SUC/SUC_epstheta_results_bigM100000_thread4/case24_ieee_rts_theta0.1_epsilon0.1_gurobi_seed140000_num_gen100_N_WDR50_load_scaling_factor1_proposed_eps_T2quadra_cost_bc1.03.txt"
Set parameter TimeLimit to value 3600
Gurobi Optimizer version 11.0.3 build v11.0.3rc0 (linux64 - "Ubuntu 20.04.6 LTS")

CPU model: AMD EPYC 7532 32-Core Processor, instruction set [SSE2|AVX|AVX2]
Thread count: 64 physical cores, 128 logical processors, using up to 4 threads

Academic license 2399124 - for non-commercial use only - registered to yi___@ed.ac.uk
Optimize a model with 4290 rows, 2532 columns and 108479 nonzeros
Model fingerprint: 0xabf2ee83
Model has 201 quadratic constraints
Variable types: 2332 continuous, 200 integer (200 binary)
Coefficient statistics:
  Matrix range     [3e-04, 2e+03]
  QMatrix range    [2e-03, 5e+01]
  QLMatrix range   [8e-02, 6e+01]
  Objective range  [1e+00, 1e+00]
  Bounds range     [1e-01, 1e+00]
  RHS range        [1e+00, 3e+04]
  QRHS range       [5e+00, 5e+00]
Presolve removed 3525 rows and 1186 columns
Presolve time: 0.03s
Presolved: 967 rows, 1546 columns, 6360 nonzeros
Presolved model has 200 quadratic constraint(s)
Presolved model has 1 bilinear constraint(s)

Solving non-convex MIQCP

Variable types: 1342 continuous, 204 integer (204 binary)

Root relaxation: objective 1.360832e-03, 1308 iterations, 0.02 seconds (0.02 work units)

    Nodes    |    Current Node    |     Objective Bounds      |     Work
 Expl Unexpl |  Obj  Depth IntInf | Incumbent    BestBd   Gap | It/Node Time

     0     0    0.00136    0    7          -    0.00136      -     -    0s
     0     0    0.00136    0    3          -    0.00136      -     -    0s
     0     0    0.00136    0    3          -    0.00136      -     -    0s
H    0     0                       0.0177535    0.00136  92.3%     -    0s
     0     0    0.01739    0    3    0.01775    0.01739  2.05%     -    0s
     0     0    0.01739    0    3    0.01775    0.01739  2.05%     -    0s
     0     0    0.01740    0    3    0.01775    0.01740  1.99%     -    0s
     0     0    0.01740    0    5    0.01775    0.01740  1.99%     -    0s
     0     0    0.01740    0    2    0.01775    0.01740  1.98%     -    0s
H    0     0                       0.0176502    0.01741  1.33%     -    0s
H    0     0                       0.0174475    0.01741  0.19%     -    0s
     0     0          -    0         0.01745    0.01744  0.03%     -    0s

Cutting planes:
  Gomory: 1
  Cover: 1
  Implied bound: 9
  MIR: 1
  RLT: 1

Explored 1 nodes (2238 simplex iterations) in 0.29 seconds (0.17 work units)
Thread count was 4 (of 128 available processors)

Solution count 3: 0.0174475 0.0176502 0.0177535 

Optimal solution found (tolerance 1.00e-03)
Best objective 1.744754381811e-02, best bound 1.744258244433e-02, gap 0.0284%
